NAME : tsp_452_sol.txt
COMMENT : OR-Tools Guided Local Search
TYPE : TOUR
DIMENSION : 50
COST : 5817
STATUS : ROUTING_SUCCESS
GAP : 0.00% (Reference Solution)
TOUR_SECTION
1
19
41
44
27
21
37
17
18
28
48
47
39
10
20
9
34
26
46
30
12
7
33
38
35
2
29
22
25
13
4
50
24
40
14
42
49
11
43
8
15
6
23
36
45
5
3
16
32
31
-1
